c Result of efficient AIG-to-CNF conversion using package CNF
p cnf 475 1760
-2 14 392 0
-2 3 14 -407 0
2 -14 0
2 -392 407 0
2 -3 -392 0
-3 4 10 12 13 0
3 -13 0
3 -4 0
3 -12 0
3 -10 0
-4 467 468 5 7 0
4 -467 0
4 -7 0
4 -5 0
4 -468 0
-5 459 465 466 6 0
5 -6 0
5 -466 0
5 -459 0
5 -465 0
-6 463 464 469 0
6 -463 0
6 -469 0
6 -464 0
-7 460 461 462 8 0
7 -8 0
7 -462 0
7 -460 0
7 -461 0
-8 455 456 9 0
8 -9 0
8 -456 0
8 -455 0
-9 451 452 457 458 0
9 -458 0
9 -457 0
9 -451 0
9 -452 0
-10 449 453 454 11 0
10 -11 0
10 -454 0
10 -449 0
10 -453 0
-11 447 448 0
11 -447 0
11 -448 0
-12 443 450 0
12 -443 0
12 -450 0
-13 444 445 446 0
13 -444 0
13 -446 0
13 -445 0
-14 15 331 0
-14 3 -324 331 0
14 -331 0
14 -15 -3 0
14 -15 324 0
15 16 256 -275 322 0
-15 -322 0
-15 -16 0
-15 275 0
-15 -256 0
-16 -17 202 250 -255 0
-16 17 202 250 255 0
16 -202 0
16 17 -255 0
16 -250 0
16 -17 255 0
17 -455 -18 0
17 -18 -44 0
17 -455 -44 0
-17 455 44 0
-17 18 44 0
-17 455 18 0
18 19 -31 0
-18 -19 0
-18 31 0
-19 438 20 0
19 -438 0
19 -20 0
-20 21 27 29 30 0
20 -30 0
20 -21 0
20 -29 0
20 -27 0
-21 435 436 22 24 0
21 -435 0
21 -24 0
21 -22 0
21 -436 0
-22 431 432 437 23 0
22 -23 0
22 -437 0
22 -431 0
22 -432 0
-23 427 433 434 0
23 -427 0
23 -434 0
23 -433 0
-24 428 429 430 25 0
24 -25 0
24 -430 0
24 -428 0
24 -429 0
-25 423 424 26 0
25 -26 0
25 -424 0
25 -423 0
-26 419 420 425 426 0
26 -426 0
26 -425 0
26 -419 0
26 -420 0
-27 417 421 422 28 0
27 -28 0
27 -422 0
27 -417 0
27 -421 0
-28 415 416 0
28 -415 0
28 -416 0
-29 411 418 0
29 -411 0
29 -418 0
-30 412 413 414 0
30 -412 0
30 -414 0
30 -413 0
31 439 -32 0
31 -439 -39 0
-31 -439 39 0
-31 439 32 0
32 440 -33 0
32 -440 -36 0
-32 -440 36 0
-32 440 33 0
33 -441 -34 0
33 441 -35 0
-33 441 35 0
-33 -441 34 0
34 -442 -452 0
34 442 -453 0
-34 442 453 0
-34 -442 452 0
35 -442 -454 0
35 442 -455 0
-35 442 455 0
-35 -442 454 0
36 441 -37 0
36 -441 -38 0
-36 -441 38 0
-36 441 37 0
37 -442 -450 0
37 442 -451 0
-37 442 451 0
-37 -442 450 0
38 -442 -448 0
38 442 -449 0
-38 442 449 0
-38 -442 448 0
39 440 -40 0
39 -440 -43 0
-39 -440 43 0
-39 440 40 0
40 441 -41 0
40 -441 -42 0
-40 -441 42 0
-40 441 41 0
41 -442 -446 0
41 442 -447 0
-41 442 447 0
-41 -442 446 0
42 -442 -444 0
42 442 -445 0
-42 442 445 0
-42 -442 444 0
43 441 442 -443 0
-43 443 0
-43 -442 0
-43 -441 0
44 -456 -45 0
44 -45 -59 0
44 -456 -59 0
-44 456 59 0
-44 45 59 0
-44 456 45 0
45 19 -46 0
-45 -19 0
-45 46 0
46 439 -47 0
46 -439 -54 0
-46 -439 54 0
-46 439 47 0
47 -440 -48 0
47 440 -51 0
-47 440 51 0
-47 -440 48 0
48 441 -49 0
48 -441 -50 0
-48 -441 50 0
-48 441 49 0
49 -442 -451 0
49 442 -452 0
-49 442 452 0
-49 -442 451 0
50 -442 -449 0
50 442 -450 0
-50 442 450 0
-50 -442 449 0
51 -441 -52 0
51 441 -53 0
-51 441 53 0
-51 -441 52 0
52 -442 -453 0
52 442 -454 0
-52 442 454 0
-52 -442 453 0
53 -442 -455 0
53 442 -456 0
-53 442 456 0
-53 -442 455 0
54 440 -55 0
54 -440 -58 0
-54 -440 58 0
-54 440 55 0
55 441 -56 0
55 -441 -57 0
-55 -441 57 0
-55 441 56 0
56 -442 -447 0
56 442 -448 0
-56 442 448 0
-56 -442 447 0
57 -442 -445 0
57 442 -446 0
-57 442 446 0
-57 -442 445 0
58 441 442 -444 0
58 441 -442 -443 0
-58 -441 0
-58 -442 443 0
-58 442 444 0
59 -457 -60 0
59 -60 -69 0
59 -457 -69 0
-59 457 69 0
-59 60 69 0
-59 457 60 0
60 19 -61 0
-60 -19 0
-60 61 0
61 439 -62 0
61 -439 -66 0
-61 -439 66 0
-61 439 62 0
62 -440 -63 0
62 440 -64 0
-62 440 64 0
-62 -440 63 0
63 441 -34 0
63 -441 -37 0
-63 -441 37 0
-63 441 34 0
64 -441 -35 0
64 441 -65 0
-64 441 65 0
-64 -441 35 0
65 -442 -456 0
65 442 -457 0
-65 442 457 0
-65 -442 456 0
66 440 -67 0
66 -440 -68 0
-66 -440 68 0
-66 440 67 0
67 441 -38 0
67 -441 -41 0
-67 -441 41 0
-67 441 38 0
68 441 -42 0
68 -441 442 -443 0
-68 -441 -442 0
-68 441 42 0
-68 -441 443 0
69 -458 -70 0
69 -458 -80 -89 0
69 -70 -80 -89 0
-69 70 89 0
-69 458 80 0
-69 458 89 0
-69 70 80 0
-69 458 70 0
70 19 -71 0
-70 -19 0
-70 71 0
71 439 -72 0
71 -439 -76 0
-71 -439 76 0
-71 439 72 0
72 -440 -73 0
72 440 -74 0
-72 440 74 0
-72 -440 73 0
73 -441 -49 0
73 441 -52 0
-73 441 52 0
-73 -441 49 0
74 -441 -53 0
74 441 -75 0
-74 441 75 0
-74 -441 53 0
75 -442 -457 0
75 442 -458 0
-75 442 458 0
-75 -442 457 0
76 440 -77 0
76 -440 -78 0
-76 -440 78 0
-76 440 77 0
77 441 -50 0
77 -441 -56 0
-77 -441 56 0
-77 441 50 0
78 441 -57 0
78 -441 -79 0
-78 -441 79 0
-78 441 57 0
79 -442 -443 0
79 442 -444 0
-79 442 444 0
-79 -442 443 0
-80 459 81 0
80 -459 0
80 -81 0
81 -438 20 -87 0
81 438 20 -82 0
-81 -20 0
-81 -438 87 0
-81 438 82 0
82 439 -83 0
82 -439 -86 0
-82 -439 86 0
-82 439 83 0
83 -440 -33 0
83 440 -84 0
-83 440 84 0
-83 -440 33 0
84 -441 -65 0
84 441 -85 0
-84 441 85 0
-84 -441 65 0
85 -442 -458 0
85 442 -459 0
-85 442 459 0
-85 -442 458 0
86 440 -36 0
86 -440 -40 0
-86 -440 40 0
-86 440 36 0
87 439 -88 0
-87 -439 0
-87 88 0
88 440 441 442 -443 0
-88 443 0
-88 -442 0
-88 -440 0
-88 -441 0
-89 90 91 0
-89 90 100 0
89 -90 0
89 -91 -100 0
90 -459 -81 0
-90 459 0
-90 81 0
-91 460 92 0
91 -460 0
91 -92 0
92 -438 20 -98 0
92 438 20 -93 0
-92 -20 0
-92 -438 98 0
-92 438 93 0
93 -439 -94 0
93 439 -95 0
-93 439 95 0
-93 -439 94 0
94 440 -48 0
94 -440 -55 0
-94 -440 55 0
-94 440 48 0
95 -440 -51 0
95 440 -96 0
-95 440 96 0
-95 -440 51 0
96 -441 -75 0
96 441 -97 0
-96 441 97 0
-96 -441 75 0
97 -442 -459 0
97 442 -460 0
-97 442 460 0
-97 -442 459 0
98 439 -99 0
-98 -439 0
-98 99 0
99 440 -58 0
-99 -440 0
-99 58 0
-100 101 102 0
100 -101 0
100 -102 0
101 -460 -92 0
-101 460 0
-101 92 0
102 -461 -103 0
102 -103 -111 0
102 -461 -111 0
-102 461 111 0
-102 103 111 0
-102 461 103 0
103 -438 20 -109 0
103 438 20 -104 0
-103 -20 0
-103 -438 109 0
-103 438 104 0
104 -439 -105 0
104 439 -106 0
-104 439 106 0
-104 -439 105 0
105 440 -63 0
105 -440 -67 0
-105 -440 67 0
-105 440 63 0
106 -440 -64 0
106 440 -107 0
-106 440 107 0
-106 -440 64 0
107 -441 -85 0
107 441 -108 0
-107 441 108 0
-107 -441 85 0
108 -442 -460 0
108 442 -461 0
-108 442 461 0
-108 -442 460 0
109 439 -110 0
-109 -439 0
-109 110 0
110 440 -68 0
-110 -440 0
-110 68 0
111 -462 -112 0
111 -112 -120 0
111 -462 -120 0
-111 462 120 0
-111 112 120 0
-111 462 112 0
112 -438 20 -118 0
112 438 20 -113 0
-112 -20 0
-112 -438 118 0
-112 438 113 0
113 -439 -114 0
113 439 -115 0
-113 439 115 0
-113 -439 114 0
114 440 -73 0
114 -440 -77 0
-114 -440 77 0
-114 440 73 0
115 -440 -74 0
115 440 -116 0
-115 440 116 0
-115 -440 74 0
116 -441 -97 0
116 441 -117 0
-116 441 117 0
-116 -441 97 0
117 -442 -461 0
117 442 -462 0
-117 442 462 0
-117 -442 461 0
118 439 -119 0
-118 -439 0
-118 119 0
119 440 -78 0
-119 -440 0
-119 78 0
120 -463 -121 0
120 -121 -127 0
120 -463 -127 0
-120 463 127 0
-120 121 127 0
-120 463 121 0
121 -438 20 -126 0
121 438 20 -122 0
-121 -20 0
-121 -438 126 0
-121 438 122 0
122 -439 -32 0
122 439 -123 0
-122 439 123 0
-122 -439 32 0
123 -440 -84 0
123 440 -124 0
-123 440 124 0
-123 -440 84 0
124 -441 -108 0
124 441 -125 0
-124 441 125 0
-124 -441 108 0
125 -442 -462 0
125 442 -463 0
-125 442 463 0
-125 -442 462 0
126 439 -39 0
-126 -439 0
-126 39 0
127 -464 -128 0
127 -128 -134 0
127 -464 -134 0
-127 464 134 0
-127 128 134 0
-127 464 128 0
128 -438 20 -133 0
128 438 20 -129 0
-128 -20 0
-128 -438 133 0
-128 438 129 0
129 -439 -47 0
129 439 -130 0
-129 439 130 0
-129 -439 47 0
130 -440 -96 0
130 440 -131 0
-130 440 131 0
-130 -440 96 0
131 -441 -117 0
131 441 -132 0
-131 441 132 0
-131 -441 117 0
132 -442 -463 0
132 442 -464 0
-132 442 464 0
-132 -442 463 0
133 439 -54 0
-133 -439 0
-133 54 0
134 -465 -135 0
134 -135 -141 0
134 -465 -141 0
-134 465 141 0
-134 135 141 0
-134 465 135 0
135 -438 20 -140 0
135 438 20 -136 0
-135 -20 0
-135 -438 140 0
-135 438 136 0
136 -439 -62 0
136 439 -137 0
-136 439 137 0
-136 -439 62 0
137 -440 -107 0
137 440 -138 0
-137 440 138 0
-137 -440 107 0
138 -441 -125 0
138 441 -139 0
-138 441 139 0
-138 -441 125 0
139 -442 -464 0
139 442 -465 0
-139 442 465 0
-139 -442 464 0
140 439 -66 0
-140 -439 0
-140 66 0
141 -466 -142 0
141 -142 -148 0
141 -466 -148 0
-141 466 148 0
-141 142 148 0
-141 466 142 0
142 -438 20 -147 0
142 438 20 -143 0
-142 -20 0
-142 -438 147 0
-142 438 143 0
143 -439 -72 0
143 439 -144 0
-143 439 144 0
-143 -439 72 0
144 -440 -116 0
144 440 -145 0
-144 440 145 0
-144 -440 116 0
145 -441 -132 0
145 441 -146 0
-145 441 146 0
-145 -441 132 0
146 -442 -465 0
146 442 -466 0
-146 442 466 0
-146 -442 465 0
147 439 -76 0
-147 -439 0
-147 76 0
148 -467 -149 0
148 -467 -155 -162 0
148 -149 -155 -162 0
-148 149 162 0
-148 467 155 0
-148 467 162 0
-148 149 155 0
-148 467 149 0
149 -438 20 -154 0
149 438 20 -150 0
-149 -20 0
-149 -438 154 0
-149 438 150 0
-150 -439 83 0
-150 439 151 0
150 -439 -83 0
150 439 -151 0
-151 440 152 0
-151 -440 124 0
151 -440 -124 0
151 440 -152 0
152 -441 -139 0
152 441 -153 0
-152 441 153 0
-152 -441 139 0
153 -442 -466 0
153 442 -467 0
-153 442 467 0
-153 -442 466 0
154 439 -86 0
154 -439 -88 0
-154 -439 88 0
-154 439 86 0
-155 468 156 0
155 -468 0
155 -156 0
156 438 20 -158 0
156 -438 20 -157 0
-156 -20 0
-156 438 158 0
-156 -438 157 0
157 439 -94 0
157 -439 -99 0
-157 -439 99 0
-157 439 94 0
-158 -439 95 0
-158 439 159 0
158 -439 -95 0
158 439 -159 0
-159 440 160 0
-159 -440 131 0
159 -440 -131 0
159 440 -160 0
160 -441 -146 0
160 441 -161 0
-160 441 161 0
-160 -441 146 0
161 -442 -467 0
161 442 -468 0
-161 442 468 0
-161 -442 467 0
-162 163 164 0
162 -163 0
162 -164 0
163 -468 -156 0
-163 468 0
-163 156 0
164 -469 -165 0
164 -165 -171 0
164 -469 -171 0
-164 469 171 0
-164 165 171 0
-164 469 165 0
165 438 20 -167 0
165 -438 20 -166 0
-165 -20 0
-165 438 167 0
-165 -438 166 0
166 439 -105 0
166 -439 -110 0
-166 -439 110 0
-166 439 105 0
-167 -439 106 0
-167 439 168 0
167 -439 -106 0
167 439 -168 0
-168 440 169 0
-168 -440 138 0
168 -440 -138 0
168 440 -169 0
169 -441 -153 0
169 441 -170 0
-169 441 170 0
-169 -441 153 0
170 -442 -468 0
170 442 -469 0
-170 442 469 0
-170 -442 468 0
171 -470 -172 0
171 -172 -178 0
171 -470 -178 0
-171 470 178 0
-171 172 178 0
-171 470 172 0
172 438 20 -174 0
172 -438 20 -173 0
-172 -20 0
-172 438 174 0
-172 -438 173 0
173 439 -114 0
173 -439 -119 0
-173 -439 119 0
-173 439 114 0
-174 -439 115 0
-174 439 175 0
174 -439 -115 0
174 439 -175 0
-175 440 176 0
-175 -440 145 0
175 -440 -145 0
175 440 -176 0
176 -441 -161 0
176 441 -177 0
-176 441 177 0
-176 -441 161 0
177 -442 -469 0
177 442 -470 0
-177 442 470 0
-177 -442 469 0
178 -471 -179 0
178 -179 -184 0
178 -471 -184 0
-178 471 184 0
-178 179 184 0
-178 471 179 0
179 438 20 -180 0
179 -438 20 -31 0
-179 -20 0
-179 438 180 0
-179 -438 31 0
-180 -439 123 0
-180 439 181 0
180 -439 -123 0
180 439 -181 0
-181 -440 152 0
-181 440 182 0
181 -440 -152 0
181 440 -182 0
-182 441 183 0
-182 -441 170 0
182 -441 -170 0
182 441 -183 0
183 -442 -470 0
183 442 -471 0
-183 442 471 0
-183 -442 470 0
184 -472 -185 0
184 -185 -190 0
184 -472 -190 0
-184 472 190 0
-184 185 190 0
-184 472 185 0
185 438 20 -186 0
185 -438 20 -46 0
-185 -20 0
-185 438 186 0
-185 -438 46 0
-186 -439 130 0
-186 439 187 0
186 -439 -130 0
186 439 -187 0
-187 -440 160 0
-187 440 188 0
187 -440 -160 0
187 440 -188 0
-188 441 189 0
-188 -441 177 0
188 -441 -177 0
188 441 -189 0
189 -442 -471 0
189 442 -472 0
-189 442 472 0
-189 -442 471 0
190 -473 -191 0
190 -191 -196 0
190 -473 -196 0
-190 473 196 0
-190 191 196 0
-190 473 191 0
191 438 20 -192 0
191 -438 20 -61 0
-191 -20 0
-191 438 192 0
-191 -438 61 0
-192 -439 137 0
-192 439 193 0
192 -439 -137 0
192 439 -193 0
-193 -440 169 0
-193 440 194 0
193 -440 -169 0
193 440 -194 0
-194 441 195 0
-194 -441 183 0
194 -441 -183 0
194 441 -195 0
195 -442 -472 0
195 442 -473 0
-195 442 473 0
-195 -442 472 0
196 -474 -197 0
-196 474 0
-196 197 0
197 438 20 -198 0
197 -438 20 -71 0
-197 -20 0
-197 438 198 0
-197 -438 71 0
-198 -439 144 0
-198 439 199 0
198 -439 -144 0
198 439 -199 0
-199 -440 176 0
-199 440 200 0
199 -440 -176 0
199 440 -200 0
-200 441 201 0
-200 -441 189 0
200 -441 -189 0
200 441 -201 0
201 -442 -473 0
201 442 -474 0
-201 442 474 0
-201 -442 473 0
-202 203 209 -236 -248 0
-202 203 209 236 248 0
202 -209 0
202 236 -248 0
202 -203 0
202 -236 248 0
-203 453 -204 -205 -207 0
-203 -453 204 -205 -207 0
-203 453 204 205 207 0
-203 -453 -204 -205 207 0
203 205 -207 0
203 -453 204 207 0
203 -453 -204 -207 0
203 -204 205 0
203 453 -205 207 0
203 453 204 -207 0
204 19 -166 0
-204 -19 0
-204 166 0
205 452 -206 0
205 -452 206 0
-205 -452 -206 0
-205 452 206 0
206 19 -157 0
-206 -19 0
-206 157 0
207 -454 -208 0
207 -208 -17 0
207 -454 -17 0
-207 454 17 0
-207 208 17 0
-207 454 208 0
208 19 -173 0
-208 -19 0
-208 173 0
-209 210 223 225 229 0
209 -229 0
209 -210 0
209 -225 0
209 -223 0
-210 -211 -214 217 0
-210 211 216 217 0
210 -217 0
210 -211 214 0
210 211 -216 0
211 212 -213 0
-211 -212 0
-211 213 0
212 -462 -112 0
-212 462 0
-212 112 0
213 461 -103 0
213 -461 103 0
-213 -461 -103 0
-213 461 103 0
214 -215 -120 0
214 -215 213 0
-214 215 0
-214 120 -213 0
-215 462 112 0
215 -462 0
215 -112 0
-216 120 214 0
216 -120 0
216 -214 0
-217 -218 -221 0
-217 141 218 221 0
217 -218 221 0
217 218 -221 0
217 -141 218 0
218 219 -220 0
-218 -219 0
-218 220 0
219 -465 -135 0
-219 465 0
-219 135 0
220 464 -128 0
220 -464 128 0
-220 -464 -128 0
-220 464 128 0
221 -222 -141 0
221 -222 220 0
-221 222 0
-221 141 -220 0
-222 465 135 0
222 -465 0
222 -135 0
223 -456 224 0
223 -456 -45 -59 0
223 -45 224 0
223 -59 224 0
-223 45 -224 0
-223 456 45 59 0
-223 456 -224 0
-223 59 -224 0
224 455 -18 0
224 -455 18 0
-224 -455 -18 0
-224 455 18 0
-225 -226 227 0
-225 80 227 0
225 -227 0
225 -80 226 0
226 458 -70 0
226 -458 70 0
-226 -458 -70 0
-226 458 70 0
-227 127 -89 228 0
-227 -127 -89 -228 0
-227 -127 226 -228 0
-227 127 226 228 0
227 127 -228 0
227 -127 228 0
227 89 -226 0
228 463 -121 0
228 -463 121 0
-228 -463 -121 0
-228 463 121 0
-229 230 234 235 0
-229 -232 234 235 0
229 -235 0
229 -234 0
229 -230 232 0
230 231 -224 0
-230 -231 0
-230 224 0
231 -456 -45 0
-231 456 0
-231 45 0
232 -233 -59 0
232 -233 224 0
-232 233 0
-232 59 -224 0
-233 456 45 0
233 -456 0
233 -45 0
234 -101 -102 0
234 91 -102 0
-234 102 0
-234 -91 101 0
235 -90 -91 0
235 -91 100 0
235 80 -91 0
-235 91 0
-235 -80 90 -100 0
236 -449 -237 0
236 -449 -238 -240 0
236 -237 -238 -240 0
-236 237 240 0
-236 449 238 0
-236 449 240 0
-236 237 238 0
-236 449 237 0
237 19 -140 0
-237 -19 0
-237 140 0
-238 450 239 0
238 -450 0
238 -239 0
239 19 -147 0
-239 -19 0
-239 147 0
-240 241 242 0
240 -241 0
240 -242 0
241 -450 -239 0
-241 450 0
-241 239 0
242 -451 -243 0
242 -243 -244 0
242 -451 -244 0
-242 451 244 0
-242 243 244 0
-242 451 243 0
243 19 -154 0
-243 -19 0
-243 154 0
244 -452 -206 0
244 -452 -245 -246 0
244 -245 -206 -246 0
-244 452 246 0
-244 206 246 0
-244 452 206 0
-244 452 245 0
-244 245 206 0
-245 453 204 0
245 -453 0
245 -204 0
-246 247 207 0
246 -247 0
246 -207 0
247 -453 -204 0
-247 453 0
-247 204 0
248 448 -249 0
248 -448 249 0
-248 -448 -249 0
-248 448 249 0
249 19 -133 0
-249 -19 0
-249 133 0
-250 244 251 253 254 0
-250 -244 251 -253 254 0
250 -254 0
250 244 -253 0
250 -251 0
250 -244 253 0
251 -238 252 0
-251 238 0
-251 -252 0
252 449 -237 0
252 -449 237 0
-252 -449 -237 0
-252 449 237 0
253 451 -243 0
253 -451 243 0
-253 -451 -243 0
-253 451 243 0
-254 -241 242 0
-254 242 252 0
-254 -238 241 -242 0
254 238 -242 0
254 241 242 -252 0
254 -241 -242 0
255 454 -208 0
255 -454 208 0
-255 -454 -208 0
-255 454 208 0
-256 257 258 271 273 0
-256 -257 -258 271 273 0
256 -273 0
256 -257 258 0
256 -271 0
256 257 -258 0
257 -443 87 0
257 -443 -19 0
-257 443 0
-257 19 -87 0
258 -444 -259 0
258 -444 -260 -262 0
258 -259 -260 -262 0
-258 259 262 0
-258 444 260 0
-258 444 262 0
-258 259 260 0
-258 444 259 0
259 19 -98 0
-259 -19 0
-259 98 0
-260 445 261 0
260 -445 0
260 -261 0
261 19 -109 0
-261 -19 0
-261 109 0
-262 263 270 0
262 -263 0
262 -270 0
263 -446 -264 0
263 -446 -265 -267 0
263 -264 -265 -267 0
-263 264 267 0
-263 446 265 0
-263 446 267 0
-263 264 265 0
-263 446 264 0
264 19 -118 0
-264 -19 0
-264 118 0
-265 447 266 0
265 -447 0
265 -266 0
266 19 -126 0
-266 -19 0
-266 126 0
-267 268 269 0
267 -268 0
267 -269 0
268 -447 -266 0
-268 447 0
-268 266 0
269 -448 -236 0
269 -236 -249 0
269 -448 -249 0
-269 448 249 0
-269 236 249 0
-269 448 236 0
270 -445 -261 0
-270 445 0
-270 261 0
-271 260 263 272 0
-271 263 -270 -272 0
-271 -260 -263 270 -272 0
271 260 -263 0
271 263 270 -272 0
271 -263 -270 0
271 -260 272 0
272 444 -259 0
272 -444 259 0
-272 -444 -259 0
-272 444 259 0
-273 447 -266 -269 -274 0
-273 -447 266 -269 -274 0
-273 447 266 269 274 0
-273 -447 -266 269 -274 0
273 -447 274 0
273 266 269 -274 0
273 -447 -266 -269 0
273 -266 274 0
273 447 269 -274 0
273 447 266 -269 0
274 446 -264 0
274 -446 264 0
-274 -446 -264 0
-274 446 264 0
275 276 300 -307 0
275 -276 -278 300 0
-275 -300 0
-275 276 307 0
-275 -276 278 0
276 178 -277 0
276 -178 277 0
-276 -178 -277 0
-276 178 277 0
277 470 -172 0
277 -470 172 0
-277 -470 -172 0
-277 470 172 0
278 279 -281 0
278 -279 -293 0
-278 -279 293 0
-278 279 281 0
279 184 -280 0
279 -184 280 0
-279 -184 -280 0
-279 184 280 0
280 471 -179 0
280 -471 179 0
-280 -471 -179 0
-280 471 179 0
281 282 -284 0
281 -282 -290 0
-281 -282 290 0
-281 282 284 0
282 190 -283 0
282 -190 283 0
-282 -190 -283 0
-282 190 283 0
283 472 -185 0
283 -472 185 0
-283 -472 -185 0
-283 472 185 0
284 285 -287 0
284 -285 -289 0
-284 -285 289 0
-284 285 287 0
285 196 -286 0
285 -196 286 0
-285 -196 -286 0
-285 196 286 0
286 473 -191 0
286 -473 191 0
-286 -473 -191 0
-286 473 191 0
287 -426 288 0
287 -425 -288 0
-287 426 288 0
-287 425 -288 0
288 474 -197 0
288 -474 197 0
-288 -474 -197 0
-288 474 197 0
289 -424 288 0
289 -423 -288 0
-289 424 288 0
-289 423 -288 0
290 285 -291 0
290 -285 -292 0
-290 -285 292 0
-290 285 291 0
291 -422 288 0
291 -421 -288 0
-291 422 288 0
-291 421 -288 0
292 -420 288 0
292 -419 -288 0
-292 420 288 0
-292 419 -288 0
293 282 -294 0
293 -282 -297 0
-293 -282 297 0
-293 282 294 0
294 285 -295 0
294 -285 -296 0
-294 -285 296 0
-294 285 295 0
295 -418 288 0
295 -417 -288 0
-295 418 288 0
-295 417 -288 0
296 -416 288 0
296 -415 -288 0
-296 416 288 0
-296 415 -288 0
297 285 -298 0
297 -285 -299 0
-297 -285 299 0
-297 285 298 0
298 -414 288 0
298 -413 -288 0
-298 414 288 0
-298 413 -288 0
299 -412 474 0
299 -411 -474 0
-299 412 474 0
-299 411 -474 0
-300 148 301 303 306 0
-300 -148 301 303 -306 0
300 -301 0
300 148 -306 0
300 -303 0
300 -148 306 0
301 -155 302 0
-301 155 0
-301 -302 0
302 467 -149 0
302 -467 149 0
-302 -467 -149 0
-302 467 149 0
-303 -171 -304 305 0
-303 171 304 305 0
303 -305 0
303 -171 304 0
303 171 -304 0
304 469 -165 0
304 -469 165 0
-304 -469 -165 0
-304 469 165 0
-305 468 -156 -164 0
-305 -468 156 -164 0
-305 164 302 0
-305 -468 -156 164 0
305 468 164 -302 0
305 -468 -156 -164 0
305 156 164 -302 0
305 468 156 -164 0
306 466 -142 0
306 -466 142 0
-306 -466 -142 0
-306 466 142 0
-307 -279 315 0
-307 308 315 0
307 -315 0
307 279 -308 0
-308 282 309 0
-308 -282 312 0
308 -282 -312 0
308 282 -309 0
-309 285 310 0
-309 -285 311 0
309 -285 -311 0
309 285 -310 0
-310 442 288 0
-310 441 -288 0
310 -442 288 0
310 -441 -288 0
311 -440 288 0
311 -439 -288 0
-311 440 288 0
-311 439 -288 0
312 285 -313 0
312 -285 -314 0
-312 -285 314 0
-312 285 313 0
313 -438 288 0
313 -437 -288 0
-313 438 288 0
-313 437 -288 0
314 -436 288 0
314 -435 -288 0
-314 436 288 0
-314 435 -288 0
315 -279 -282 -319 0
315 -279 282 -316 0
-315 279 0
-315 -282 319 0
-315 282 316 0
316 285 -317 0
316 -285 -318 0
-316 -285 318 0
-316 285 317 0
317 -434 288 0
317 -433 -288 0
-317 434 288 0
-317 433 -288 0
318 -432 288 0
318 -431 -288 0
-318 432 288 0
-318 431 -288 0
319 285 -320 0
319 -285 -321 0
-319 -285 321 0
-319 285 320 0
320 -430 288 0
320 -429 -288 0
-320 430 288 0
-320 429 -288 0
321 -428 288 0
321 -427 -288 0
-321 428 288 0
-321 427 -288 0
-322 -69 -323 0
-322 69 323 0
322 69 -323 0
322 -69 323 0
323 457 -60 0
323 -457 60 0
-323 -457 -60 0
-323 457 60 0
-324 -470 278 0
-324 470 315 325 0
324 -470 -278 0
324 470 -325 0
324 470 -315 0
325 471 -472 -329 0
325 471 472 -326 0
-325 -471 0
-325 -472 329 0
-325 472 326 0
-326 473 328 0
-326 -473 327 0
326 -473 -327 0
326 473 -328 0
327 -440 474 0
327 -439 -474 0
-327 440 474 0
-327 439 -474 0
328 -442 474 0
328 -441 -474 0
-328 442 474 0
-328 441 -474 0
329 -473 -314 0
329 473 -330 0
-329 473 330 0
-329 -473 314 0
330 -438 474 0
330 -437 -474 0
-330 438 474 0
-330 437 -474 0
-331 332 342 0
-331 3 -340 342 0
331 -342 0
331 -332 340 0
331 -3 -332 0
332 16 256 322 -333 0
-332 333 0
-332 -16 0
-332 -322 0
-332 -256 0
333 276 300 -336 0
333 -276 300 -334 0
-333 -300 0
-333 276 336 0
-333 -276 334 0
334 279 -335 0
334 -279 282 -297 0
-334 -279 -282 0
-334 279 335 0
-334 -279 297 0
335 282 -290 0
335 -282 -294 0
-335 -282 294 0
-335 282 290 0
-336 -279 339 0
-336 337 338 339 0
336 -339 0
336 279 -337 0
336 279 -338 0
337 -282 -316 0
-337 282 0
-337 316 0
338 282 -312 0
-338 -282 0
-338 312 0
339 -279 282 -319 0
339 -279 -282 -284 0
-339 279 0
-339 -282 284 0
-339 282 319 0
-340 -470 334 0
-340 470 339 341 0
340 -470 -334 0
340 470 -341 0
340 470 -339 0
341 471 -337 0
341 471 472 -329 0
-341 -471 0
-341 -472 337 0
-341 329 337 0
-342 -371 376 0
-342 343 -389 0
-342 343 376 0
-342 -371 -389 0
342 -343 371 0
342 -376 389 0
343 16 256 322 -344 0
-343 344 0
-343 -16 0
-343 -322 0
-343 -256 0
344 276 300 -357 0
344 -276 300 -345 0
-344 -300 0
-344 276 357 0
-344 -276 345 0
345 -279 -352 0
345 279 -346 349 0
-345 279 346 0
-345 -279 352 0
-345 279 -349 0
-346 282 -285 348 0
-346 282 285 347 0
346 -282 0
346 -285 -348 0
346 285 -347 0
347 -423 288 0
347 -422 -288 0
-347 423 288 0
-347 422 -288 0
348 -421 288 0
348 -420 -288 0
-348 421 288 0
-348 420 -288 0
349 -282 -285 351 0
349 -282 285 350 0
-349 282 0
-349 -285 -351 0
-349 285 -350 0
350 -419 288 0
350 -418 -288 0
-350 419 288 0
-350 418 -288 0
351 -417 288 0
351 -416 -288 0
-351 417 288 0
-351 416 -288 0
352 282 -353 0
352 -282 285 -356 0
-352 -282 -285 0
-352 282 353 0
-352 -282 356 0
353 285 -354 0
353 -285 -355 0
-353 -285 355 0
-353 285 354 0
354 -415 288 0
354 -414 -288 0
-354 415 288 0
-354 414 -288 0
-355 474 -288 0
-355 412 413 0
-355 412 -288 0
-355 413 474 0
355 -412 -474 0
355 -413 288 0
356 -411 288 0
-356 411 0
-356 -288 0
-357 -279 364 0
-357 358 361 364 0
357 -364 0
357 279 -358 0
357 279 -361 0
358 282 285 -360 0
358 282 -285 -359 0
-358 -282 0
-358 -285 359 0
-358 285 360 0
359 -437 288 0
359 -436 -288 0
-359 437 288 0
-359 436 -288 0
360 -439 288 0
360 -438 -288 0
-360 439 288 0
-360 438 -288 0
361 -282 -285 -363 0
361 -282 285 -362 0
-361 282 0
-361 -285 363 0
-361 285 362 0
362 -435 288 0
362 -434 -288 0
-362 435 288 0
-362 434 -288 0
363 -433 288 0
363 -432 -288 0
-363 433 288 0
-363 432 -288 0
364 -279 -282 -368 0
364 -279 282 -365 0
-364 279 0
-364 -282 368 0
-364 282 365 0
365 285 -366 0
365 -285 -367 0
-365 -285 367 0
-365 285 366 0
366 -431 288 0
366 -430 -288 0
-366 431 288 0
-366 430 -288 0
367 -429 288 0
367 -428 -288 0
-367 429 288 0
-367 428 -288 0
368 285 -369 0
368 -285 -370 0
-368 -285 370 0
-368 285 369 0
369 -427 288 0
369 -426 -288 0
-369 427 288 0
-369 426 -288 0
370 -425 288 0
370 -424 -288 0
-370 425 288 0
-370 424 -288 0
371 470 3 -372 0
371 -470 3 -345 0
-371 -3 0
-371 470 372 0
-371 -470 345 0
-372 -471 364 0
-372 361 364 373 0
372 -364 0
372 471 -373 0
372 471 -361 0
373 472 -374 0
373 472 473 -375 0
-373 -472 0
-373 -473 374 0
-373 374 375 0
374 -285 -359 0
-374 285 0
-374 359 0
375 -439 474 0
375 -438 -474 0
-375 439 474 0
-375 438 -474 0
376 16 256 322 -377 0
-376 377 0
-376 -16 0
-376 -322 0
-376 -256 0
377 276 300 -383 0
377 -276 300 -378 0
-377 -300 0
-377 276 383 0
-377 -276 378 0
378 -279 -381 0
378 279 -379 380 0
-378 279 379 0
-378 -279 381 0
-378 279 -380 0
-379 282 -285 291 0
-379 282 285 289 0
379 -282 0
379 -285 -291 0
379 285 -289 0
380 -282 -285 295 0
380 -282 285 292 0
-380 282 0
-380 -285 -295 0
-380 285 -292 0
381 282 -382 0
381 -282 285 -299 0
-381 -282 -285 0
-381 282 382 0
-381 -282 299 0
382 285 -296 0
382 -285 -298 0
-382 -285 298 0
-382 285 296 0
-383 -279 386 0
-383 384 385 386 0
383 -386 0
383 279 -384 0
383 279 -385 0
384 282 -285 -313 0
384 282 285 -311 0
-384 -282 0
-384 -285 313 0
-384 285 311 0
385 -282 -285 -317 0
385 -282 285 -314 0
-385 282 0
-385 -285 317 0
-385 285 314 0
386 -279 -282 -388 0
386 -279 282 -387 0
-386 279 0
-386 -282 388 0
-386 282 387 0
387 285 -318 0
387 -285 -320 0
-387 -285 320 0
-387 285 318 0
388 -285 -287 0
388 285 -321 0
-388 285 321 0
-388 -285 287 0
389 470 3 -390 0
389 -470 3 -378 0
-389 -3 0
-389 470 390 0
-389 -470 378 0
-390 -471 386 0
-390 385 386 391 0
390 -386 0
390 471 -391 0
390 471 -385 0
391 472 -473 -330 0
391 472 473 -327 0
-391 -472 0
-391 -473 330 0
-391 473 327 0
392 16 256 322 -393 0
-392 393 0
-392 -16 0
-392 -322 0
-392 -256 0
393 276 300 -400 0
393 -276 300 -394 0
-393 -300 0
-393 276 400 0
-393 -276 394 0
394 -279 -397 0
394 279 -395 396 0
-394 279 395 0
-394 -279 397 0
-394 279 -396 0
-395 282 -285 347 0
-395 282 285 370 0
395 -282 0
395 -285 -347 0
395 285 -370 0
396 -282 -285 350 0
396 -282 285 348 0
-396 282 0
-396 -285 -350 0
-396 285 -348 0
397 282 -398 0
397 -282 -399 0
-397 -282 399 0
-397 282 398 0
398 285 -351 0
398 -285 -354 0
-398 -285 354 0
-398 285 351 0
399 285 -355 0
399 -411 -285 288 0
-399 411 -285 0
-399 285 355 0
-399 -285 -288 0
-400 -279 404 0
-400 401 403 404 0
400 -404 0
400 279 -401 0
400 279 -403 0
401 282 -285 -360 0
401 282 285 -402 0
-401 -282 0
-401 -285 360 0
-401 285 402 0
-402 441 288 0
-402 440 -288 0
402 -441 288 0
402 -440 -288 0
403 -282 -285 -362 0
403 -282 285 -359 0
-403 282 0
-403 -285 362 0
-403 285 359 0
404 -279 -282 -406 0
404 -279 282 -405 0
-404 279 0
-404 -282 406 0
-404 282 405 0
405 285 -363 0
405 -285 -366 0
-405 -285 366 0
-405 285 363 0
406 285 -367 0
406 -285 -369 0
-406 -285 369 0
-406 285 367 0
-407 -470 394 0
-407 470 404 408 0
407 -470 -394 0
407 470 -408 0
407 470 -404 0
408 471 -403 0
408 471 472 -409 0
-408 -471 0
-408 -472 403 0
-408 403 409 0
-409 473 410 0
-409 -473 375 0
409 -473 -375 0
409 473 -410 0
410 -441 474 0
410 -440 -474 0
-410 441 474 0
-410 440 -474 0
-475 0
2 0

